(set-info :smt-lib-version 2.7)
(set-logic QF_NIA)
(set-info :source  | 
Generated by: Johannes Bauer
Generated on: 2026-06-18
Generator: mgm A12 Test Data Generator
Application: ELSTER
Target solver: Z3, Yices2, CVC5
Script is based on the ELSTER form: capital gains tax registration (A / KapEStInvStG)
Characteristic of the form: easy.
In this script, all terms of the form (* x1 x2 x3 ...) are in the form (* x1 c2 c3 ...),
all terms of the form (div x y) are in the form (div x c) and the symbol mod is exclusively used in the form (mod x c),
where x, y, and x1, x2, x3 ... are free constants and c, c2, c3 ... are terms in the form n or (-n) for some numeral n.
The script starts with the base constraints, which define a valid data set for the corresponding form. After the first (push 1), control constraints follow.
The goal of the control constraints in this script is to fill up a data set with values, after the characteristics of the high test coverage were placed.
number variables: 232, number constraints: 219
"https://www.elster.de/eportal/start?locale=en_US"
"https://www.mgm-tp.com/q12-tdg.html"
"https://a12.ai/public-sector"
|)
(set-info :license "https://creativecommons.org/licenses/by/4.0/")
(set-info :category "industrial")
(set-info :major-phase |variable declarations|)
(declare-fun B1-F () Bool)
(declare-fun B2-F () Bool)
(declare-fun I3-i () Int)
(declare-fun I4-N () Int)
(declare-fun B5-F () Bool)
(declare-fun I5-i () Int)
(declare-fun B6-F () Bool)
(declare-fun B7-F () Bool)
(declare-fun B8-F () Bool)
(declare-fun B9-F () Bool)
(declare-fun I9-y () Int)
(declare-fun B10-F () Bool)
(declare-fun I10-N () Int)
(declare-fun B11-F () Bool)
(declare-fun B12-F () Bool)
(declare-fun B13-F () Bool)
(declare-fun I13-N () Int)
(declare-fun B14-F () Bool)
(declare-fun I14-y () Int)
(declare-fun I14-m () Int)
(declare-fun I14-d () Int)
(declare-fun B15-F () Bool)
(declare-fun I15-y () Int)
(declare-fun I15-m () Int)
(declare-fun I15-d () Int)
(declare-fun B16-F () Bool)
(declare-fun B17-F () Bool)
(declare-fun B18-F () Bool)
(declare-fun I18 () Int)
(declare-fun I19 () Int)
(declare-fun I20 () Int)
(declare-fun B21-F () Bool)
(declare-fun B22-F () Bool)
(declare-fun B23-F () Bool)
(declare-fun I23 () Int)
(declare-fun I24 () Int)
(declare-fun I25 () Int)
(declare-fun B26-F () Bool)
(declare-fun B27-F () Bool)
(declare-fun B28-F () Bool)
(declare-fun I28 () Int)
(declare-fun I29 () Int)
(declare-fun I30 () Int)
(declare-fun B31-F () Bool)
(declare-fun B32-F () Bool)
(declare-fun I32-s-y () Int)
(declare-fun I32-s-m () Int)
(declare-fun I32-s-d () Int)
(declare-fun I32-e-y () Int)
(declare-fun I32-e-m () Int)
(declare-fun I32-e-d () Int)
(declare-fun B33-F () Bool)
(declare-fun I33-y () Int)
(declare-fun I33-m () Int)
(declare-fun I33-d () Int)
(declare-fun B34-F () Bool)
(declare-fun I34-y () Int)
(declare-fun I34-m () Int)
(declare-fun I34-d () Int)
(declare-fun B35-F () Bool)
(declare-fun B36-F () Bool)
(declare-fun B37-F () Bool)
(declare-fun I37 () Int)
(declare-fun I38 () Int)
(declare-fun I39 () Int)
(declare-fun B40-F () Bool)
(declare-fun B41-F () Bool)
(declare-fun B42-F () Bool)
(declare-fun I42 () Int)
(declare-fun I43 () Int)
(declare-fun I44 () Int)
(declare-fun B45-F () Bool)
(declare-fun B46-F () Bool)
(declare-fun B47-F () Bool)
(declare-fun I47 () Int)
(declare-fun I48 () Int)
(declare-fun I49 () Int)
(declare-fun B50-F () Bool)
(declare-fun B51-F () Bool)
(declare-fun I51-s-y () Int)
(declare-fun I51-s-m () Int)
(declare-fun I51-s-d () Int)
(declare-fun I51-e-y () Int)
(declare-fun I51-e-m () Int)
(declare-fun I51-e-d () Int)
(declare-fun B52-F () Bool)
(declare-fun I52-y () Int)
(declare-fun I52-m () Int)
(declare-fun I52-d () Int)
(declare-fun B53-F () Bool)
(declare-fun I53-y () Int)
(declare-fun I53-m () Int)
(declare-fun I53-d () Int)
(declare-fun B54-F () Bool)
(declare-fun B55-F () Bool)
(declare-fun B56-F () Bool)
(declare-fun I56 () Int)
(declare-fun I57 () Int)
(declare-fun I58 () Int)
(declare-fun B59-F () Bool)
(declare-fun B60-F () Bool)
(declare-fun B61-F () Bool)
(declare-fun I61 () Int)
(declare-fun I62 () Int)
(declare-fun I63 () Int)
(declare-fun B64-F () Bool)
(declare-fun B65-F () Bool)
(declare-fun B66-F () Bool)
(declare-fun I66 () Int)
(declare-fun I67 () Int)
(declare-fun I68 () Int)
(declare-fun B69-F () Bool)
(declare-fun B70-F () Bool)
(declare-fun I70-N () Int)
(declare-fun B71-F () Bool)
(declare-fun I71-y () Int)
(declare-fun I71-m () Int)
(declare-fun I71-d () Int)
(declare-fun B72-F () Bool)
(declare-fun I72-y () Int)
(declare-fun I72-m () Int)
(declare-fun I72-d () Int)
(declare-fun B73-F () Bool)
(declare-fun I73-y () Int)
(declare-fun I73-m () Int)
(declare-fun I73-d () Int)
(declare-fun B74-F () Bool)
(declare-fun B75-F () Bool)
(declare-fun B76-F () Bool)
(declare-fun I76 () Int)
(declare-fun I77 () Int)
(declare-fun I78 () Int)
(declare-fun B79-F () Bool)
(declare-fun B80-F () Bool)
(declare-fun B81-F () Bool)
(declare-fun I81 () Int)
(declare-fun I82 () Int)
(declare-fun I83 () Int)
(declare-fun B84-F () Bool)
(declare-fun B85-F () Bool)
(declare-fun B86-F () Bool)
(declare-fun I86 () Int)
(declare-fun I87 () Int)
(declare-fun I88 () Int)
(declare-fun B89-F () Bool)
(declare-fun B90-F () Bool)
(declare-fun I90-y () Int)
(declare-fun I90-m () Int)
(declare-fun I90-d () Int)
(declare-fun B91-F () Bool)
(declare-fun B92-F () Bool)
(declare-fun B93-F () Bool)
(declare-fun B94-F () Bool)
(declare-fun I94 () Int)
(declare-fun I95 () Int)
(declare-fun I96 () Int)
(declare-fun B97-F () Bool)
(declare-fun B98-F () Bool)
(declare-fun B99-F () Bool)
(declare-fun I99 () Int)
(declare-fun I100 () Int)
(declare-fun I101 () Int)
(declare-fun B102-F () Bool)
(declare-fun B103-F () Bool)
(declare-fun B104-F () Bool)
(declare-fun I104 () Int)
(declare-fun I105 () Int)
(declare-fun I106 () Int)
(declare-fun B107-F () Bool)
(declare-fun B108-F () Bool)
(declare-fun I108 () Int)
(declare-fun I109 () Int)
(declare-fun I110 () Int)
(declare-fun B111-F () Bool)
(declare-fun B112-F () Bool)
(declare-fun I112-y () Int)
(declare-fun I112-m () Int)
(declare-fun I112-d () Int)
(declare-fun B113-F () Bool)
(declare-fun B114-F () Bool)
(declare-fun I114 () Int)
(declare-fun B115-F () Bool)
(declare-fun I115 () Int)
(declare-fun B116-F () Bool)
(declare-fun B117-F () Bool)
(declare-fun B118-F () Bool)
(declare-fun I118 () Int)
(declare-fun B119-F () Bool)
(declare-fun I119 () Int)
(declare-fun B120-F () Bool)
(declare-fun I120 () Int)
(declare-fun B121-F () Bool)
(declare-fun I121 () Int)
(declare-fun B122-F () Bool)
(declare-fun I122 () Int)
(declare-fun B123-F () Bool)
(declare-fun I123 () Int)
(declare-fun B124-F () Bool)
(declare-fun I124 () Int)
(declare-fun B125-F () Bool)
(declare-fun I125 () Int)
(declare-fun B126-F () Bool)
(declare-fun I126 () Int)
(declare-fun B127-F () Bool)
(declare-fun I127 () Int)
(declare-fun B128-F () Bool)
(declare-fun I128 () Int)
(declare-fun B129-F () Bool)
(declare-fun I129 () Int)
(declare-fun B130-F () Bool)
(declare-fun I130 () Int)
(declare-fun B131-F () Bool)
(declare-fun I131 () Int)
(declare-fun B132-F () Bool)
(declare-fun I132 () Int)
(declare-fun B133-F () Bool)
(declare-fun I133 () Int)
(declare-fun B134-F () Bool)
(declare-fun I134 () Int)
(declare-fun B135-F () Bool)
(declare-fun I136 () Int)
(declare-fun B137-F () Bool)
(declare-fun B138-F () Bool)
(declare-fun B139-F () Bool)
(declare-fun B140-F () Bool)
(declare-fun B141-F () Bool)
(declare-fun B142-F () Bool)
(declare-fun B143-F () Bool)
(declare-fun B144-F () Bool)
(declare-fun B145-F () Bool)
(declare-fun B146-F () Bool)
(declare-fun B147-F () Bool)
(set-info :major-phase |base constraints|)
(set-info :base-constraint-type |constraints defining hierarchy (group is filled, if a child is filled)|)
(assert (= B111-F (or B112-F B113-F)))
(assert (= B113-F (or B114-F B115-F)))
(assert (= B137-F (or B138-F B139-F)))
(assert (or B9-F B10-F B11-F B12-F B31-F B50-F B69-F B89-F))
(assert (= B12-F (or B13-F B14-F B15-F B16-F B21-F B26-F)))
(assert (= B16-F (or B17-F B18-F)))
(assert (= B21-F (or B22-F B23-F)))
(assert (= B26-F (or B27-F B28-F)))
(assert (= B69-F (or B70-F B71-F B72-F B73-F B74-F B79-F B84-F)))
(assert (= B74-F (or B75-F B76-F)))
(assert (= B79-F (or B80-F B81-F)))
(assert (= B84-F (or B85-F B86-F)))
(assert (= B89-F (or B90-F B91-F B92-F B97-F B102-F B107-F)))
(assert (= B92-F (or B93-F B94-F)))
(assert (= B97-F (or B98-F B99-F)))
(assert (= B102-F (or B103-F B104-F)))
(assert (= B107-F B108-F))
(assert (= B31-F (or B32-F B33-F B34-F B35-F B40-F B45-F)))
(assert (= B35-F (or B36-F B37-F)))
(assert (= B40-F (or B41-F B42-F)))
(assert (= B45-F (or B46-F B47-F)))
(assert (= B50-F (or B51-F B52-F B53-F B54-F B59-F B64-F)))
(assert (= B54-F (or B55-F B56-F)))
(assert (= B59-F (or B60-F B61-F)))
(assert (= B64-F (or B65-F B66-F)))
(assert (= B140-F (or B141-F B142-F)))
(assert (= B142-F (or B143-F B144-F B145-F B146-F)))
(assert (= B116-F (or B117-F B135-F)))
(assert (= B117-F (or B118-F B119-F B120-F B121-F B122-F B123-F B124-F B125-F B126-F B127-F B128-F B129-F B130-F B131-F B132-F B133-F B134-F)))
(set-info :base-constraint-type |domainconstraints number-fields|)
(assert (ite B114-F (and (<= I114 999999999999) (>= I114 0)) (= I114 0)))
(assert (ite B115-F (and (<= I115 999999999999) (>= I115 0)) (= I115 0)))
(assert (ite B18-F (and (<= I18 999999999999) (>= I18 (- 999999999999))) (= I18 0)))
(assert (= I19 0))
(assert (= I20 0))
(assert (ite B23-F (and (<= I23 999999999999) (>= I23 (- 999999999999))) (= I23 0)))
(assert (= I24 0))
(assert (= I25 0))
(assert (ite B28-F (and (<= I28 999999999999) (>= I28 (- 999999999999))) (= I28 0)))
(assert (= I29 0))
(assert (= I30 0))
(assert (ite B76-F (and (<= I76 999999999999) (>= I76 (- 999999999999))) (= I76 0)))
(assert (= I77 0))
(assert (= I78 0))
(assert (ite B81-F (and (<= I81 999999999999) (>= I81 (- 999999999999))) (= I81 0)))
(assert (= I82 0))
(assert (= I83 0))
(assert (ite B86-F (and (<= I86 999999999999) (>= I86 (- 999999999999))) (= I86 0)))
(assert (= I87 0))
(assert (= I88 0))
(assert (ite B94-F (and (<= I94 999999999999) (>= I94 0)) (= I94 0)))
(assert (= I95 0))
(assert (= I96 0))
(assert (ite B99-F (and (<= I99 999999999999) (>= I99 0)) (= I99 0)))
(assert (= I100 0))
(assert (= I101 0))
(assert (ite B104-F (and (<= I104 999999999999) (>= I104 0)) (= I104 0)))
(assert (= I105 0))
(assert (= I106 0))
(assert (ite B108-F (and (<= I108 999999999999) (>= I108 (- 999999999999))) (= I108 0)))
(assert (= I109 0))
(assert (= I110 0))
(assert (ite B37-F (and (<= I37 999999999999) (>= I37 (- 999999999999))) (= I37 0)))
(assert (= I38 0))
(assert (= I39 0))
(assert (ite B42-F (and (<= I42 999999999999) (>= I42 (- 999999999999))) (= I42 0)))
(assert (= I43 0))
(assert (= I44 0))
(assert (ite B47-F (and (<= I47 999999999999) (>= I47 (- 999999999999))) (= I47 0)))
(assert (= I48 0))
(assert (= I49 0))
(assert (ite B56-F (and (<= I56 999999999999) (>= I56 (- 999999999999))) (= I56 0)))
(assert (= I57 0))
(assert (= I58 0))
(assert (ite B61-F (and (<= I61 999999999999) (>= I61 (- 999999999999))) (= I61 0)))
(assert (= I62 0))
(assert (= I63 0))
(assert (ite B66-F (and (<= I66 999999999999) (>= I66 (- 999999999999))) (= I66 0)))
(assert (= I67 0))
(assert (= I68 0))
(assert (ite B121-F (and (<= I121 99999999999999) (>= I121 (- 9999999999999))) (= I121 0)))
(assert (ite B120-F (and (<= I120 99999999999999) (>= I120 (- 9999999999999))) (= I120 0)))
(assert (ite B118-F (and (<= I118 99999999999999) (>= I118 (- 9999999999999))) (= I118 0)))
(assert (ite B119-F (and (<= I119 99999999999999) (>= I119 (- 9999999999999))) (= I119 0)))
(assert (ite B122-F (and (<= I122 99999999999999) (>= I122 (- 9999999999999))) (= I122 0)))
(assert (ite B124-F (and (<= I124 99999999999999) (>= I124 (- 9999999999999))) (= I124 0)))
(assert (ite B123-F (and (<= I123 99999999999999) (>= I123 (- 9999999999999))) (= I123 0)))
(assert (ite B125-F (and (<= I125 99999999999999) (>= I125 (- 9999999999999))) (= I125 0)))
(assert (ite B126-F (and (<= I126 99999999999999) (>= I126 (- 9999999999999))) (= I126 0)))
(assert (ite B127-F (and (<= I127 99999999999999) (>= I127 (- 9999999999999))) (= I127 0)))
(assert (ite B128-F (and (<= I128 99999999999999) (>= I128 (- 9999999999999))) (= I128 0)))
(assert (ite B132-F (and (<= I132 99999999999999) (>= I132 (- 9999999999999))) (= I132 0)))
(assert (ite B129-F (and (<= I129 99999999999999) (>= I129 (- 9999999999999))) (= I129 0)))
(assert (ite B130-F (and (<= I130 99999999999999) (>= I130 (- 9999999999999))) (= I130 0)))
(assert (ite B131-F (and (<= I131 99999999999999) (>= I131 (- 9999999999999))) (= I131 0)))
(assert (ite B133-F (and (<= I133 99999999999999) (>= I133 (- 9999999999999))) (= I133 0)))
(assert (ite B134-F (and (<= I134 99999999999999) (>= I134 (- 9999999999999))) (= I134 0)))
(assert (ite B135-F (and (<= I136 99999999999999) (>= I136 (- 9999999999999))) (= I136 0)))
(set-info :base-constraint-type |domainconstraints date-fields|)
(assert (and (ite B112-F (and (> I112-y 1900) (< I112-y 2100)) (= I112-y 0)) (ite B112-F (and (> I112-m 0) (<= I112-m 12)) (= I112-m 0)) (ite B112-F (and (> I112-d 0) (<= I112-d (ite (or (= I112-m 0) (= I112-m 1) (= I112-m 3) (= I112-m 5) (= I112-m 7) (= I112-m 8) (= I112-m 10) (= I112-m 12)) 31 (ite (or (= I112-m 4) (= I112-m 6) (= I112-m 9) (= I112-m 11)) 30 (ite (= (mod I112-y 4) 0) 29 28))))) (= I112-d 0))))
(assert (ite B9-F (and (> I9-y 1900) (< I9-y 2100)) (= I9-y 0)))
(assert (and (ite B15-F (and (> I15-y 1900) (< I15-y 2100)) (= I15-y 0)) (ite B15-F (and (> I15-m 0) (<= I15-m 12)) (= I15-m 0)) (ite B15-F (and (> I15-d 0) (<= I15-d (ite (or (= I15-m 0) (= I15-m 1) (= I15-m 3) (= I15-m 5) (= I15-m 7) (= I15-m 8) (= I15-m 10) (= I15-m 12)) 31 (ite (or (= I15-m 4) (= I15-m 6) (= I15-m 9) (= I15-m 11)) 30 (ite (= (mod I15-y 4) 0) 29 28))))) (= I15-d 0))))
(assert (and (ite B14-F (and (> I14-y 1900) (< I14-y 2100)) (= I14-y 0)) (ite B14-F (and (> I14-m 0) (<= I14-m 12)) (= I14-m 0)) (ite B14-F (and (> I14-d 0) (<= I14-d (ite (or (= I14-m 0) (= I14-m 1) (= I14-m 3) (= I14-m 5) (= I14-m 7) (= I14-m 8) (= I14-m 10) (= I14-m 12)) 31 (ite (or (= I14-m 4) (= I14-m 6) (= I14-m 9) (= I14-m 11)) 30 (ite (= (mod I14-y 4) 0) 29 28))))) (= I14-d 0))))
(assert (and (ite B72-F (and (> I72-y 1900) (< I72-y 2100)) (= I72-y 0)) (ite B72-F (and (> I72-m 0) (<= I72-m 12)) (= I72-m 0)) (ite B72-F (and (> I72-d 0) (<= I72-d (ite (or (= I72-m 0) (= I72-m 1) (= I72-m 3) (= I72-m 5) (= I72-m 7) (= I72-m 8) (= I72-m 10) (= I72-m 12)) 31 (ite (or (= I72-m 4) (= I72-m 6) (= I72-m 9) (= I72-m 11)) 30 (ite (= (mod I72-y 4) 0) 29 28))))) (= I72-d 0))))
(assert (and (ite B71-F (and (> I71-y 1900) (< I71-y 2100)) (= I71-y 0)) (ite B71-F (and (> I71-m 0) (<= I71-m 12)) (= I71-m 0)) (ite B71-F (and (> I71-d 0) (<= I71-d (ite (or (= I71-m 0) (= I71-m 1) (= I71-m 3) (= I71-m 5) (= I71-m 7) (= I71-m 8) (= I71-m 10) (= I71-m 12)) 31 (ite (or (= I71-m 4) (= I71-m 6) (= I71-m 9) (= I71-m 11)) 30 (ite (= (mod I71-y 4) 0) 29 28))))) (= I71-d 0))))
(assert (and (ite B73-F (and (> I73-y 1900) (< I73-y 2100)) (= I73-y 0)) (ite B73-F (and (> I73-m 0) (<= I73-m 12)) (= I73-m 0)) (ite B73-F (and (> I73-d 0) (<= I73-d (ite (or (= I73-m 0) (= I73-m 1) (= I73-m 3) (= I73-m 5) (= I73-m 7) (= I73-m 8) (= I73-m 10) (= I73-m 12)) 31 (ite (or (= I73-m 4) (= I73-m 6) (= I73-m 9) (= I73-m 11)) 30 (ite (= (mod I73-y 4) 0) 29 28))))) (= I73-d 0))))
(assert (and (ite B90-F (and (> I90-y 1900) (< I90-y 2100)) (= I90-y 0)) (ite B90-F (and (> I90-m 0) (<= I90-m 12)) (= I90-m 0)) (ite B90-F (and (> I90-d 0) (<= I90-d (ite (or (= I90-m 0) (= I90-m 1) (= I90-m 3) (= I90-m 5) (= I90-m 7) (= I90-m 8) (= I90-m 10) (= I90-m 12)) 31 (ite (or (= I90-m 4) (= I90-m 6) (= I90-m 9) (= I90-m 11)) 30 (ite (= (mod I90-y 4) 0) 29 28))))) (= I90-d 0))))
(assert (and (ite B34-F (and (> I34-y 1900) (< I34-y 2100)) (= I34-y 0)) (ite B34-F (and (> I34-m 0) (<= I34-m 12)) (= I34-m 0)) (ite B34-F (and (> I34-d 0) (<= I34-d (ite (or (= I34-m 0) (= I34-m 1) (= I34-m 3) (= I34-m 5) (= I34-m 7) (= I34-m 8) (= I34-m 10) (= I34-m 12)) 31 (ite (or (= I34-m 4) (= I34-m 6) (= I34-m 9) (= I34-m 11)) 30 (ite (= (mod I34-y 4) 0) 29 28))))) (= I34-d 0))))
(assert (and (ite B33-F (and (> I33-y 1900) (< I33-y 2100)) (= I33-y 0)) (ite B33-F (and (> I33-m 0) (<= I33-m 12)) (= I33-m 0)) (ite B33-F (and (> I33-d 0) (<= I33-d (ite (or (= I33-m 0) (= I33-m 1) (= I33-m 3) (= I33-m 5) (= I33-m 7) (= I33-m 8) (= I33-m 10) (= I33-m 12)) 31 (ite (or (= I33-m 4) (= I33-m 6) (= I33-m 9) (= I33-m 11)) 30 (ite (= (mod I33-y 4) 0) 29 28))))) (= I33-d 0))))
(assert (or (< I32-s-y I32-e-y) (and (= I32-s-y I32-e-y) (< I32-s-m I32-e-m)) (and (= I32-s-y I32-e-y) (= I32-s-m I32-e-m) (<= I32-s-d I32-e-d))))
(assert (=> B32-F (and (>= I32-e-d 1) (<= I32-e-d (ite (or (= I32-e-m 0) (= I32-e-m 1) (= I32-e-m 3) (= I32-e-m 5) (= I32-e-m 7) (= I32-e-m 8) (= I32-e-m 10) (= I32-e-m 12)) 31 (ite (or (= I32-e-m 4) (= I32-e-m 6) (= I32-e-m 9) (= I32-e-m 11)) 30 (ite (= (mod I32-e-y 4) 0) 29 28)))))))
(assert (=> B32-F (and (>= I32-e-m 1) (<= I32-e-m 12))))
(assert (=> B32-F (and (>= I32-e-y 1901) (<= I32-e-y 2099))))
(assert (=> B32-F (and (>= I32-s-d 1) (<= I32-s-d (ite (or (= I32-s-m 0) (= I32-s-m 1) (= I32-s-m 3) (= I32-s-m 5) (= I32-s-m 7) (= I32-s-m 8) (= I32-s-m 10) (= I32-s-m 12)) 31 (ite (or (= I32-s-m 4) (= I32-s-m 6) (= I32-s-m 9) (= I32-s-m 11)) 30 (ite (= (mod I32-s-y 4) 0) 29 28)))))))
(assert (=> B32-F (and (>= I32-s-m 1) (<= I32-s-m 12))))
(assert (=> B32-F (and (>= I32-s-y 1901) (<= I32-s-y 2099))))
(assert (and (ite B53-F (and (> I53-y 1900) (< I53-y 2100)) (= I53-y 0)) (ite B53-F (and (> I53-m 0) (<= I53-m 12)) (= I53-m 0)) (ite B53-F (and (> I53-d 0) (<= I53-d (ite (or (= I53-m 0) (= I53-m 1) (= I53-m 3) (= I53-m 5) (= I53-m 7) (= I53-m 8) (= I53-m 10) (= I53-m 12)) 31 (ite (or (= I53-m 4) (= I53-m 6) (= I53-m 9) (= I53-m 11)) 30 (ite (= (mod I53-y 4) 0) 29 28))))) (= I53-d 0))))
(assert (and (ite B52-F (and (> I52-y 1900) (< I52-y 2100)) (= I52-y 0)) (ite B52-F (and (> I52-m 0) (<= I52-m 12)) (= I52-m 0)) (ite B52-F (and (> I52-d 0) (<= I52-d (ite (or (= I52-m 0) (= I52-m 1) (= I52-m 3) (= I52-m 5) (= I52-m 7) (= I52-m 8) (= I52-m 10) (= I52-m 12)) 31 (ite (or (= I52-m 4) (= I52-m 6) (= I52-m 9) (= I52-m 11)) 30 (ite (= (mod I52-y 4) 0) 29 28))))) (= I52-d 0))))
(assert (or (< I51-s-y I51-e-y) (and (= I51-s-y I51-e-y) (< I51-s-m I51-e-m)) (and (= I51-s-y I51-e-y) (= I51-s-m I51-e-m) (<= I51-s-d I51-e-d))))
(assert (=> B51-F (and (>= I51-e-d 1) (<= I51-e-d (ite (or (= I51-e-m 0) (= I51-e-m 1) (= I51-e-m 3) (= I51-e-m 5) (= I51-e-m 7) (= I51-e-m 8) (= I51-e-m 10) (= I51-e-m 12)) 31 (ite (or (= I51-e-m 4) (= I51-e-m 6) (= I51-e-m 9) (= I51-e-m 11)) 30 (ite (= (mod I51-e-y 4) 0) 29 28)))))))
(assert (=> B51-F (and (>= I51-e-m 1) (<= I51-e-m 12))))
(assert (=> B51-F (and (>= I51-e-y 1901) (<= I51-e-y 2099))))
(assert (=> B51-F (and (>= I51-s-d 1) (<= I51-s-d (ite (or (= I51-s-m 0) (= I51-s-m 1) (= I51-s-m 3) (= I51-s-m 5) (= I51-s-m 7) (= I51-s-m 8) (= I51-s-m 10) (= I51-s-m 12)) 31 (ite (or (= I51-s-m 4) (= I51-s-m 6) (= I51-s-m 9) (= I51-s-m 11)) 30 (ite (= (mod I51-s-y 4) 0) 29 28)))))))
(assert (=> B51-F (and (>= I51-s-m 1) (<= I51-s-m 12))))
(assert (=> B51-F (and (>= I51-s-y 1901) (<= I51-s-y 2099))))
(set-info :base-constraint-type |constraints for date-strategy|)
(assert (=> B13-F (and (> I13-N 1900) (< I13-N 2100))))
(assert (=> B13-F (and (> I13-N 1900) (< I13-N 2100))))
(set-info :base-constraint-type |domainconstraints string fields|)
(assert (ite B13-F (and (>= I13-N 0) (<= I13-N 9999)) (= I13-N 0)))
(assert (ite B70-F (and (>= I70-N 0) (<= I70-N 9999)) (= I70-N 0)))
(set-info :base-constraint-type |domainconstraints index-based string fields|)
(assert (or (= I4-N 0) (= I4-N 1)))
(assert (ite B10-F (or (= I10-N 1) (= I10-N 2) (= I10-N 3) (= I10-N 4) (= I10-N 5) (= I10-N 6) (= I10-N 7) (= I10-N 8) (= I10-N 9) (= I10-N 10) (= I10-N 11) (= I10-N 12)) (= I10-N 0)))
(assert (or (= I3-i 1) (= I3-i 2) (= I3-i 3) (= I3-i 4) (= I3-i 5) (= I3-i 6) (= I3-i 7) (= I3-i 8) (= I3-i 9) (= I3-i 10) (= I3-i 11) (= I3-i 12) (= I3-i 13) (= I3-i 14) (= I3-i 15)))
(assert (ite B5-F (or (= I5-i 1) (= I5-i 2) (= I5-i 3) (= I5-i 4) (= I5-i 5) (= I5-i 6) (= I5-i 7) (= I5-i 8) (= I5-i 9) (= I5-i 10) (= I5-i 11) (= I5-i 12) (= I5-i 13) (= I5-i 14) (= I5-i 15)) (= I5-i 0)))
(set-info :base-constraint-type |constraints, guarding filling of calculations|)
(assert (= (or B121-F B120-F B122-F B118-F B119-F B123-F B124-F B125-F B126-F B127-F B134-F B128-F B131-F B132-F B129-F B130-F B133-F) B135-F))
(set-info :base-constraint-type |constraints from validation-rules|)
(assert (not (and B115-F B114-F (distinct I114 0) (distinct I115 (div (* I114 15) 100)))))
(assert (not (and B112-F (or (< I112-y 2025) (> I112-y 2025)))))
(assert (not (and (or B139-F B138-F) (not (and B139-F B138-F)))))
(assert (not (and B9-F (or (< I9-y 2025) (> I9-y 2025)))))
(assert (not (and B15-F B14-F (or (> I15-y I14-y) (and (= I15-y I14-y) (> I15-m I14-m)) (and (= I15-y I14-y) (= I15-m I14-m) (> I15-d I14-d))))))
(assert (not (and B14-F (or (distinct I14-y (ite B9-F I9-y 0)) (distinct I14-m I10-N)))))
(assert (not (and B13-F B15-F (>= (ite (and (>= I13-N 1) (<= I13-N 9999)) (+ (- I15-y I13-N) (ite (or (< I13-N I15-y) (and (= I13-N I15-y) (< 5 I15-m)) (and (= I13-N I15-y) (= 5 I15-m) (< 1 I15-d)) (and (= I13-N I15-y) (= 5 I15-m) (= 1 I15-d))) (ite (or (< 5 I15-m) (and (= 5 I15-m) (<= 1 I15-d))) 0 (- 1)) (ite (or (> 5 I15-m) (and (= 5 I15-m) (>= 1 I15-d))) 0 1))) 0) 1))))
(assert (not (and B14-F (< I14-y I13-N))))
(assert (not (and (not (and B15-F B14-F B13-F)) (or B16-F B21-F B26-F))))
(assert (not (and (or B13-F B14-F B15-F) (not B16-F) (not B21-F) (not B26-F))))
(assert (not (and B13-F (> I13-N 2025))))
(assert (not (and (or B18-F B23-F B28-F) (or (and (distinct I18 0) (= I19 0)) (and (distinct I23 0) (= I24 0)) (and (distinct I28 0) (= I29 0))))))
(assert (not (or B17-F B18-F)))
(assert (not (or B22-F B23-F)))
(assert (not (or B27-F B28-F)))
(assert (not (and B72-F (not B73-F))))
(assert (not (and B72-F B71-F (or (< I72-y I71-y) (and (= I72-y I71-y) (< I72-m I71-m)) (and (= I72-y I71-y) (= I72-m I71-m) (< I72-d I71-d)) (and (= I72-y I71-y) (= I72-m I71-m) (= I72-d I71-d))))))
(assert (not (and B72-F (< I72-y I70-N))))
(assert (not (and B72-F B73-F (or (< I72-y I73-y) (and (= I72-y I73-y) (< I72-m I73-m)) (and (= I72-y I73-y) (= I72-m I73-m) (< I72-d I73-d))))))
(assert (not (and B72-F (or (< I72-y (ite B9-F I9-y 0)) (and (= I72-y (ite B9-F I9-y 0)) (< I72-m I10-N))))))
(assert (not (and B73-F (< I73-y 2023))))
(assert (not (and (not (and B70-F B71-F)) (or B74-F B79-F B84-F))))
(assert (not (and B71-F (distinct I71-y I70-N))))
(assert (not (and (or B70-F B71-F B73-F) (not B74-F) (not B79-F) (not B84-F))))
(assert (not (and B71-F (or (> I71-y (ite B9-F I9-y 0)) (and (= I71-y (ite B9-F I9-y 0)) (> I71-m I10-N))))))
(assert (not (and B70-F (> I70-N 2025))))
(assert (not (and B70-F (or (and B71-F (or (< I71-y 2022) (and (= I71-y 2022) (< I71-m 10)) (and (= I71-y 2022) (= I71-m 10) (< I71-d 1))) (< I70-N 2025)) (and B71-F (or (> I71-y 2022) (and (= I71-y 2022) (> I71-m 10)) (and (= I71-y 2022) (= I71-m 10) (> I71-d 1)) (and (= I71-y 2022) (= I71-m 10) (= I71-d 1))) (or (and (< I70-N 2025) (= I70-N 2024) (>= I10-N 5) (<= I10-N 12)) (and (< I70-N 2025) (distinct I70-N 2024))))))))
(assert (not (and B71-F (or (and (= I71-y (ite B9-F I9-y 0)) (< I71-m (- I10-N 4))) (and (distinct I71-y (ite B9-F I9-y 0)) (< I71-y (- (ite B9-F I9-y 0) 1))) (and (distinct I71-y (ite B9-F I9-y 0)) (= I71-y (- (ite B9-F I9-y 0) 1)) (> I71-m 8) (< I71-m (- (+ I10-N 12) 4))) (and (distinct I71-y (ite B9-F I9-y 0)) (= I71-y (- (ite B9-F I9-y 0) 1)) (<= I71-m 8))))))
(assert (not (and (or B76-F B81-F B86-F) (or (and (distinct I76 0) (= I77 0)) (and (distinct I81 0) (= I82 0)) (and (distinct I86 0) (= I87 0))))))
(assert (not (or B75-F B76-F)))
(assert (not (or B80-F B81-F)))
(assert (not (or B85-F B86-F)))
(assert (not (and (not (and B91-F B90-F)) (or B92-F B97-F B102-F))))
(assert (not (and (or B91-F B90-F) (not B92-F) (not B97-F) (not B102-F))))
(assert (not (and (or B94-F B99-F B104-F) (or (and (distinct I94 0) (= I95 0)) (and (distinct I99 0) (= I100 0)) (and (distinct I104 0) (= I105 0))))))
(assert (not (or B93-F B94-F)))
(assert (not (or B98-F B99-F)))
(assert (not (or B103-F B104-F)))
(assert (not (and B108-F (distinct I108 0) (= I109 0))))
(assert (not (and B90-F (or (> I90-y (ite B9-F I9-y 0)) (and (> I90-m I10-N) (= I90-y (ite B9-F I9-y 0)))))))
(assert (not (and B34-F B33-F (or (> I34-y I33-y) (and (= I34-y I33-y) (> I34-m I33-m)) (and (= I34-y I33-y) (= I34-m I33-m) (> I34-d I33-d))))))
(assert (not (and B33-F (or (distinct I33-y (ite B9-F I9-y 0)) (distinct I33-m I10-N)))))
(assert (not (and B33-F (< I33-y 2025))))
(assert (not (and (not (and B34-F B33-F B32-F)) (or B35-F B40-F B45-F))))
(assert (not (and (or B34-F B33-F B32-F) (not B35-F) (not B40-F) (not B45-F))))
(assert (not (and (or B37-F B42-F B47-F) (or (and (distinct I37 0) (= I38 0)) (and (distinct I42 0) (= I43 0)) (and (distinct I47 0) (= I48 0))))))
(assert (not (or B36-F B37-F)))
(assert (not (or B41-F B42-F)))
(assert (not (or B46-F B47-F)))
(assert (not (and B32-F B33-F (or (> I32-e-y I33-y) (and (= I32-e-y I33-y) (> I32-e-m I33-m)) (and (= I32-e-y I33-y) (= I32-e-m I33-m) (> I32-e-d I33-d))))))
(assert (not (and B32-F (not B33-F))))
(assert (not (and B32-F (or (< I32-s-y (- I32-e-y 1)) (and (= I32-s-y (- I32-e-y 1)) (< I32-s-m I32-e-m)) (and (= I32-s-y (- I32-e-y 1)) (= I32-s-m I32-e-m) (< I32-s-d (+ I32-e-d 1)))))))
(assert (not (and B53-F B52-F (or (> I53-y I52-y) (and (= I53-y I52-y) (> I53-m I52-m)) (and (= I53-y I52-y) (= I53-m I52-m) (> I53-d I52-d))))))
(assert (not (and B52-F (or (distinct I52-y (ite B9-F I9-y 0)) (distinct I52-m I10-N)))))
(assert (not (and B52-F (< I52-y 2025))))
(assert (not (and (not (and B53-F B52-F B51-F)) (or B54-F B59-F B64-F))))
(assert (not (and (or B53-F B52-F B51-F) (not B54-F) (not B59-F) (not B64-F))))
(assert (not (and (or B56-F B61-F B66-F) (or (and (distinct I56 0) (= I57 0)) (and (distinct I61 0) (= I62 0)) (and (distinct I66 0) (= I67 0))))))
(assert (not (or B55-F B56-F)))
(assert (not (or B60-F B61-F)))
(assert (not (or B65-F B66-F)))
(assert (not (and B51-F B52-F (or (> I51-e-y I52-y) (and (= I51-e-y I52-y) (> I51-e-m I52-m)) (and (= I51-e-y I52-y) (= I51-e-m I52-m) (> I51-e-d I52-d))))))
(assert (not (and B51-F (not B52-F))))
(assert (not (and B51-F (or (< I51-s-y (- I51-e-y 1)) (and (= I51-s-y (- I51-e-y 1)) (< I51-s-m I51-e-m)) (and (= I51-s-y (- I51-e-y 1)) (= I51-s-m I51-e-m) (< I51-s-d (+ I51-e-d 1)))))))
(assert (not (or (and (not B1-F) (not B2-F)) (and B1-F B2-F))))
(assert (not (and (or B1-F B9-F B10-F) (not B12-F) (not B31-F) (not B50-F) (not B69-F) (not B89-F))))
(assert (not (and B1-F B112-F)))
(assert (not (and B1-F (not (and B9-F B10-F)))))
(assert (not (and B1-F B9-F B10-F (or (< 2026 I9-y) (and (= 2026 I9-y) (<= 6 I10-N))))))
(assert (not (and B1-F B9-F B10-F (or (< 2027 I9-y) (and (= 2027 I9-y) (<= 6 I10-N))))))
(assert (not (and B2-F (or B9-F B10-F B11-F B13-F B14-F B15-F B17-F B18-F B22-F B23-F B27-F B28-F B32-F B33-F B34-F B36-F B37-F B41-F B42-F B46-F B47-F B51-F B52-F B53-F B55-F B56-F B60-F B61-F B65-F B66-F B70-F B71-F B72-F B73-F B75-F B76-F B80-F B81-F B85-F B86-F B90-F B91-F B93-F B94-F B98-F B99-F B103-F B104-F B108-F))))
(assert (not (and B2-F (not (and B112-F B114-F B115-F)))))
(assert (not (and B141-F (not (and B143-F B144-F)))))
(assert (not (and (not B141-F) (or B143-F B144-F))))
(assert (not (and B5-F (= I4-N 0))))
(assert (not (and B5-F (= I5-i I3-i))))
(assert (not (and B111-F (not B2-F))))
(assert (not (and (or B121-F B120-F B122-F B118-F B119-F B123-F B124-F B125-F B126-F B127-F B134-F B128-F B131-F B132-F B129-F B130-F B133-F) (not B135-F))))
(assert (not (and B135-F (or B121-F B120-F B122-F B118-F B119-F B123-F B124-F B125-F B126-F B127-F B134-F B128-F B131-F B132-F B129-F B130-F B133-F) (distinct I136 (+ I121 I120 I122 I118 I119 I123 I124 I125 I126 I127 I134 I128 I131 I132 I129 I130 I133)))))
(assert (not (and B135-F (not B121-F) (not B120-F) (not B122-F) (not B118-F) (not B119-F) (not B123-F) (not B124-F) (not B125-F) (not B126-F) (not B127-F) (not B134-F) (not B128-F) (not B131-F) (not B132-F) (not B129-F) (not B130-F) (not B133-F))))
(set-info :major-phase |control constraints|)
(push 1)
(assert B41-F)
(set-info :status unsat)
(check-sat)
(pop 1)
(push 1)
(assert B28-F)
(set-info :status unsat)
(check-sat)
(pop 1)
(push 1)
(assert B55-F)
(set-info :status unsat)
(check-sat)
(pop 1)
(push 1)
(assert B33-F)
(set-info :status unsat)
(check-sat)
(pop 1)
(push 1)
(assert B104-F)
(set-info :status unsat)
(check-sat)
(pop 1)
(push 1)
(assert B99-F)
(set-info :status unsat)
(check-sat)
(pop 1)
(push 1)
(assert B122-F)
(set-info :status sat)
(check-sat)
(push 1)
(assert B66-F)
(set-info :status unsat)
(check-sat)
(pop 1)
(push 1)
(assert B91-F)
(set-info :status unsat)
(check-sat)
(pop 1)
(push 1)
(assert B135-F)
(set-info :status sat)
(check-sat)
(push 1)
(assert B75-F)
(set-info :status unsat)
(check-sat)
(pop 1)
(push 1)
(assert B13-F)
(set-info :status unsat)
(check-sat)
(pop 1)
(push 1)
(assert B124-F)
(set-info :status sat)
(check-sat)
(push 1)
(assert B8-F)
(set-info :status sat)
(check-sat)
(push 1)
(assert B32-F)
(set-info :status unsat)
(check-sat)
(pop 1)
(push 1)
(assert B146-F)
(set-info :status sat)
(check-sat)
(push 1)
(assert B6-F)
(set-info :status sat)
(check-sat)
(push 1)
(assert B65-F)
(set-info :status unsat)
(check-sat)
(pop 1)
(push 1)
(assert B34-F)
(set-info :status unsat)
(check-sat)
(pop 1)
(push 1)
(assert B129-F)
(set-info :status sat)
(check-sat)
(push 1)
(assert B130-F)
(set-info :status sat)
(check-sat)
(push 1)
(assert B36-F)
(set-info :status unsat)
(check-sat)
(pop 1)
(push 1)
(assert B118-F)
(set-info :status sat)
(check-sat)
(push 1)
(assert B132-F)
(set-info :status sat)
(check-sat)
(push 1)
(assert B119-F)
(set-info :status sat)
(check-sat)
(push 1)
(assert B114-F)
(set-info :status unsat)
(check-sat)
(pop 1)
(push 1)
(assert B131-F)
(set-info :status sat)
(check-sat)
(push 1)
(assert B46-F)
(set-info :status unsat)
(check-sat)
(pop 1)
(push 1)
(assert B27-F)
(set-info :status unsat)
(check-sat)
(pop 1)
(push 1)
(assert B70-F)
(set-info :status unsat)
(check-sat)
(pop 1)
(push 1)
(assert B1-F)
(set-info :status sat)
(check-sat)
(push 1)
(assert B17-F)
(set-info :status unsat)
(check-sat)
(pop 1)
(push 1)
(assert B72-F)
(set-info :status unsat)
(check-sat)
(pop 1)
(push 1)
(assert B53-F)
(set-info :status unsat)
(check-sat)
(pop 1)
(push 1)
(assert B121-F)
(set-info :status sat)
(check-sat)
(push 1)
(assert B145-F)
(set-info :status sat)
(check-sat)
(push 1)
(assert B120-F)
(set-info :status sat)
(check-sat)
(push 1)
(assert B86-F)
(set-info :status unsat)
(check-sat)
(pop 1)
(push 1)
(assert B128-F)
(set-info :status sat)
(check-sat)
(push 1)
(assert B143-F)
(set-info :status sat)
(check-sat)
(push 1)
(assert B56-F)
(set-info :status unsat)
(check-sat)
(pop 1)
(push 1)
(assert B94-F)
(set-info :status unsat)
(check-sat)
(pop 1)
(push 1)
(assert B52-F)
(set-info :status unsat)
(check-sat)
(pop 1)
(push 1)
(assert B10-F)
(set-info :status sat)
(check-sat)
(push 1)
(assert B141-F)
(set-info :status sat)
(check-sat)
(push 1)
(assert B76-F)
(set-info :status unsat)
(check-sat)
(pop 1)
(push 1)
(assert B2-F)
(set-info :status unsat)
(check-sat)
(pop 1)
(push 1)
(assert B139-F)
(set-info :status sat)
(check-sat)
(push 1)
(assert B37-F)
(set-info :status unsat)
(check-sat)
(pop 1)
(push 1)
(assert B51-F)
(set-info :status unsat)
(check-sat)
(pop 1)
(push 1)
(assert B22-F)
(set-info :status unsat)
(check-sat)
(pop 1)
(push 1)
(assert B133-F)
(set-info :status sat)
(check-sat)
(push 1)
(assert B23-F)
(set-info :status unsat)
(check-sat)
(pop 1)
(push 1)
(assert B73-F)
(set-info :status unsat)
(check-sat)
(pop 1)
(push 1)
(assert B115-F)
(set-info :status unsat)
(check-sat)
(pop 1)
(push 1)
(assert B18-F)
(set-info :status unsat)
(check-sat)
(pop 1)
(push 1)
(assert B93-F)
(set-info :status unsat)
(check-sat)
(pop 1)
(push 1)
(assert B127-F)
(set-info :status sat)
(check-sat)
(push 1)
(assert B81-F)
(set-info :status unsat)
(check-sat)
(pop 1)
(push 1)
(assert B134-F)
(set-info :status sat)
(check-sat)
(push 1)
(assert B147-F)
(set-info :status sat)
(check-sat)
(push 1)
(assert B42-F)
(set-info :status unsat)
(check-sat)
(pop 1)
(push 1)
(assert B60-F)
(set-info :status unsat)
(check-sat)
(pop 1)
(push 1)
(assert B7-F)
(set-info :status sat)
(check-sat)
(push 1)
(assert B71-F)
(set-info :status unsat)
(check-sat)
(pop 1)
(push 1)
(assert B9-F)
(set-info :status sat)
(check-sat)
(push 1)
(assert B14-F)
(set-info :status unsat)
(check-sat)
(pop 1)
(push 1)
(assert B126-F)
(set-info :status sat)
(check-sat)
(push 1)
(assert B85-F)
(set-info :status unsat)
(check-sat)
(pop 1)
(push 1)
(assert B80-F)
(set-info :status unsat)
(check-sat)
(pop 1)
(push 1)
(assert B112-F)
(set-info :status unsat)
(check-sat)
(pop 1)
(push 1)
(assert B125-F)
(set-info :status sat)
(check-sat)
(push 1)
(assert B108-F)
(set-info :status sat)
(check-sat)
(push 1)
(assert B5-F)
(set-info :status sat)
(check-sat)
(push 1)
(assert B11-F)
(set-info :status sat)
(check-sat)
(push 1)
(assert B15-F)
(set-info :status unsat)
(check-sat)
(pop 1)
(push 1)
(assert B98-F)
(set-info :status unsat)
(check-sat)
(pop 1)
(push 1)
(assert B47-F)
(set-info :status unsat)
(check-sat)
(pop 1)
(push 1)
(assert B138-F)
(set-info :status sat)
(check-sat)
(push 1)
(assert B90-F)
(set-info :status unsat)
(check-sat)
(pop 1)
(push 1)
(assert B61-F)
(set-info :status unsat)
(check-sat)
(pop 1)
(push 1)
(assert B123-F)
(set-info :status sat)
(check-sat)
(push 1)
(assert B144-F)
(set-info :status sat)
(check-sat)
(push 1)
(assert B103-F)
(set-info :status unsat)
(check-sat)
(pop 1)
(set-info :status sat)
(check-sat)
(exit)

